Problem:    
Rows:       248
Columns:    89 (72 integer, 72 binary)
Non-zeros:  820
Status:     INTEGER OPTIMAL
Objective:  value = 24.879568 (MINimum)

   No.   Row name        Activity     Lower bound   Upper bound
------ ------------    ------------- ------------- -------------
     1 r.5                   24.8796             0               
     2 r.6                  -476.127      -496.302               
     3 r.7                    524.88             0               
     4 r.8                  -493.224      -493.819               
     5 r.9                    524.88             0               
     6 r.10                 -485.825      -495.274               
     7 r.11                  24.8796             0               
     8 r.12                 -451.142      -492.113               
     9 r.13                  24.8796             0               
    10 r.14                  7.11548       -494.75               
    11 r.15                   524.88             0               
    12 r.16                 -478.431      -495.533               
    13 r.17                  24.8796             0               
    14 r.18                  7.11548      -497.338               
    15 r.19                   524.88             0               
    16 r.20                 -485.898      -495.674               
    17 r.21                   524.88             0               
    18 r.22                 -490.552      -497.667               
    19 r.23                  24.8796             0               
    20 r.24                   0.5955      -498.149               
    21 r.25                   524.88             0               
    22 r.26                  -475.12      -492.295               
    23 r.27                  24.8796             0               
    24 r.28                 -462.029      -486.909               
    25 r.29                  24.8796             0               
    26 r.30                  17.1747      -495.252               
    27 r.31                   524.88             0               
    28 r.32                  -475.12       -499.69               
    29 r.33                  24.8796             0               
    30 r.34                   0.5955      -499.604               
    31 r.35                   524.88             0               
    32 r.36                 -499.404      -499.404               
    33 r.37                        1             1             = 
    34 r.38                        1             1             = 
    35 r.39                        1             1             = 
    36 r.40                        1             1             = 
    37 r.41                        1             1             = 
    38 r.42                        1             1             = 
    39 r.43                        1             1             = 
    40 r.44                        1             1             = 
    41 r.45                  493.302       4.72641               
    42 r.46                 -496.302      -496.302               
    43 r.47                  39.0821       7.88749               
    44 r.48                 -36.0821      -493.819               
    45 r.49                  486.243       5.24972               
    46 r.50                 -486.243      -496.302               
    47 r.51                   11.793       4.46717               
    48 r.52                  -11.793      -493.819               
    49 r.53                  486.243       2.66215               
    50 r.54                 -486.243      -496.302               
    51 r.55                  4.32584       4.32584               
    52 r.56                 -4.32584      -493.819               
    53 r.57                  488.575        2.3328               
    54 r.58                 -488.575      -496.302               
    55 r.59                  490.819       1.85074               
    56 r.60                 -490.819      -493.819               
    57 r.61                   4.0066      -489.295               
    58 r.62                  17.0979      -483.909               
    59 r.63                 -484.897      -489.295               
    60 r.64                 -471.805      -483.909               
    61 r.65                  496.302       4.74828               
    62 r.66                 -496.302      -496.302               
    63 r.67                  15.1033      0.310295               
    64 r.68                 -15.1033      -493.819               
    65 r.69                 -479.723      -493.302               
    66 r.70                 -490.819      -490.819               
    67 r.71                 -479.723      -493.302               
    68 r.72                 -490.819      -490.819               
    69 r.73                  6.69828       3.69828               
    70 r.74                 -3.69828      -495.274               
    71 r.75                  460.918       6.18076               
    72 r.76                 -463.918      -492.113               
    73 r.77                  489.941       5.24972               
    74 r.78                 -489.941      -495.274               
    75 r.79                  475.711       4.46717               
    76 r.80                 -475.711      -492.113               
    77 r.81                  489.941       2.66215               
    78 r.82                 -489.941      -495.274               
    79 r.83                  468.244       4.32584               
    80 r.84                 -468.244      -492.113               
    81 r.85                  492.274        2.3328               
    82 r.86                 -492.274      -495.274               
    83 r.87                  454.737       1.85074               
    84 r.88                 -454.737      -492.113               
    85 r.89                  7.70488       7.70488               
    86 r.90                 -7.70488      -495.274               
    87 r.91                  492.113       13.0913               
    88 r.92                 -492.113      -492.113               
    89 r.93                        0      -492.252               
    90 r.94                 -492.295       -496.69               
    91 r.95                  471.316      -492.252               
    92 r.96                 -20.9788       -496.69               
    93 r.97                 -483.421      -492.274               
    94 r.98                 -454.737      -489.113               
    95 r.99                 -483.421      -492.274               
    96 r.100                -454.737      -489.113               
    97 r.101                 16.7575       3.69828               
    98 r.102                -13.7575       -494.75               
    99 r.103                 485.207       6.18076               
   100 r.104                -488.207      -495.533               
   101 r.105                 7.05921       4.72641               
   102 r.106                -10.0592       -494.75               
   103 r.107                 27.2891       7.88749               
   104 r.108                -24.2891      -495.533               
   105 r.109                       0       -491.75               
   106 r.110                -485.546      -492.533               
   107 r.111                -6.98662       -491.75               
   108 r.112                -492.533      -492.533               
   109 r.113                  2.3328        2.3328               
   110 r.114                 -2.3328       -494.75               
   111 r.115                 479.026       1.85074               
   112 r.116                -479.026      -495.533               
   113 r.117                 17.7641       7.70488               
   114 r.118                -17.7641       -494.75               
   115 r.119                 16.4016       13.0913               
   116 r.120                -16.4016      -495.533               
   117 r.121                 10.0592      -492.252               
   118 r.122                -482.236       -496.69               
   119 r.123                -4.39458      -492.252               
   120 r.124                 -496.69       -496.69               
   121 r.125                 6.51998       -491.75               
   122 r.126                -479.026      -492.533               
   123 r.127                 6.51998       -491.75               
   124 r.128                -479.026      -492.533               
   125 r.129                 16.7575       3.69828               
   126 r.130                -13.7575      -497.338               
   127 r.131                 492.674       6.18076               
   128 r.132                -495.674      -495.674               
   129 r.133                 7.05921       4.72641               
   130 r.134                -10.0592      -497.338               
   131 r.135                 34.7562       7.88749               
   132 r.136                -31.7562      -495.674               
   133 r.137                       0       -491.75               
   134 r.138                -485.546      -492.533               
   135 r.139                -6.98662       -491.75               
   136 r.140                -492.533      -492.533               
   137 r.141                  2.3328        2.3328               
   138 r.142                 -2.3328      -497.338               
   139 r.143                 486.493       1.85074               
   140 r.144                -486.493      -495.674               
   141 r.145                 17.7641       7.70488               
   142 r.146                -17.7641      -497.338               
   143 r.147                 23.8687       13.0913               
   144 r.148                -23.8687      -495.674               
   145 r.149                 10.0592      -492.252               
   146 r.150                -482.236       -496.69               
   147 r.151                 3.07259      -492.252               
   148 r.152                -489.223       -496.69               
   149 r.153                 6.51998      -491.338               
   150 r.154                -486.493      -489.674               
   151 r.155                 6.51998      -491.338               
   152 r.156                -486.493      -489.674               
   153 r.157                 14.4247       3.69828               
   154 r.158                -11.4247      -497.667               
   155 r.159                 6.18076       6.18076               
   156 r.160                -9.18076      -498.149               
   157 r.161                 4.72641       4.72641               
   158 r.162                -7.72641      -497.667               
   159 r.163                 48.2628       7.88749               
   160 r.164                -45.2628      -498.149               
   161 r.165                 497.667       5.24972               
   162 r.166                -497.667      -497.667               
   163 r.167                 20.9738       4.46717               
   164 r.168                -20.9738      -498.149               
   165 r.169                 497.667       2.66215               
   166 r.170                -497.667      -497.667               
   167 r.171                 13.5066       4.32584               
   168 r.172                -13.5066      -498.149               
   169 r.173                -484.569      -489.295               
   170 r.174                -471.477      -483.909               
   171 r.175                -475.716      -489.295               
   172 r.176                -462.625      -483.909               
   173 r.177                 7.72641      -492.252               
   174 r.178                -484.569       -496.69               
   175 r.179                 16.5792      -492.252               
   176 r.180                -475.716       -496.69               
   177 r.181                -491.147      -491.667               
   178 r.182                       0      -492.149               
   179 r.183                -491.147      -491.667               
   180 r.184                       0      -492.149               
   181 r.185                  4.0066      -489.295               
   182 r.186                 17.0979      -483.909               
   183 r.187                -484.897      -489.295               
   184 r.188                -471.805      -483.909               
   185 r.189                 489.295       4.72641               
   186 r.190                -492.295      -492.295               
   187 r.191                 10.8875       7.88749               
   188 r.192                -7.88749      -486.909               
   189 r.193                 482.236       5.24972               
   190 r.194                -482.236      -492.295               
   191 r.195                 483.598       4.46717               
   192 r.196                -483.598      -486.909               
   193 r.197                 482.236       2.66215               
   194 r.198                -482.236      -492.295               
   195 r.199                 476.131       4.32584               
   196 r.200                -476.131      -486.909               
   197 r.201                -484.569      -489.295               
   198 r.202                -471.477      -483.909               
   199 r.203                -475.716      -489.295               
   200 r.204                -462.625      -483.909               
   201 r.205                 492.295       4.74828               
   202 r.206                -492.295      -492.295               
   203 r.207                 486.909      0.310295               
   204 r.208                -486.909      -486.909               
   205 r.209                 6.69828       3.69828               
   206 r.210                -3.69828      -495.252               
   207 r.211                 481.897       6.18076               
   208 r.212                -484.897       -499.69               
   209 r.213                       0      -492.252               
   210 r.214                -492.295       -496.69               
   211 r.215                 471.316      -492.252               
   212 r.216                -20.9788       -496.69               
   213 r.217                 10.0592      -492.252               
   214 r.218                -482.236       -496.69               
   215 r.219                -4.39458      -492.252               
   216 r.220                 -496.69       -496.69               
   217 r.221                 10.0592      -492.252               
   218 r.222                -482.236       -496.69               
   219 r.223                 3.07259      -492.252               
   220 r.224                -489.223       -496.69               
   221 r.225                 7.72641      -492.252               
   222 r.226                -484.569       -496.69               
   223 r.227                 16.5792      -492.252               
   224 r.228                -475.716       -496.69               
   225 r.229                 7.70488       7.70488               
   226 r.230                -7.70488      -495.252               
   227 r.231                 13.0913       13.0913               
   228 r.232                -13.0913       -499.69               
   229 r.233                -479.723      -493.302               
   230 r.234                -490.819      -490.819               
   231 r.235                -479.723      -493.302               
   232 r.236                -490.819      -490.819               
   233 r.237                -483.421      -492.274               
   234 r.238                -454.737      -489.113               
   235 r.239                -483.421      -492.274               
   236 r.240                -454.737      -489.113               
   237 r.241                 6.51998       -491.75               
   238 r.242                -479.026      -492.533               
   239 r.243                 6.51998       -491.75               
   240 r.244                -479.026      -492.533               
   241 r.245                 6.51998      -491.338               
   242 r.246                -486.493      -489.674               
   243 r.247                 6.51998      -491.338               
   244 r.248                -486.493      -489.674               
   245 r.249                -491.147      -491.667               
   246 r.250                       0      -492.149               
   247 r.251                -491.147      -491.667               
   248 r.252                       0      -492.149               

   No. Column name       Activity     Lower bound   Upper bound
------ ------------    ------------- ------------- -------------
     1 tt                    24.8796             0               
     2 s_1_1        *              0             0             1 
     3 t_1_1                 504.007             0               
     4 s_1_6        *              1             0             1 
     5 s_2_1        *              1             0             1 
     6 t_2_1                 15.1033             0               
     7 s_2_6        *              0             0             1 
     8 s_1_2        *              1             0             1 
     9 t_1_2                 7.70488             0               
    10 s_1_7        *              0             0             1 
    11 s_2_2        *              0             0             1 
    12 t_2_2                 479.021             0               
    13 s_2_7        *              1             0             1 
    14 s_1_3        *              0             0             1 
    15 t_1_3                 17.7641             0               
    16 s_2_3        *              1             0             1 
    17 t_2_3                 3.31029             0               
    18 s_1_4        *              0             0             1 
    19 t_1_4                 17.7641             0               
    20 s_2_4        *              1             0             1 
    21 t_2_4                 10.7775             0               
    22 s_1_5        *              1             0             1 
    23 t_1_5                 15.4313             0               
    24 s_2_5        *              0             0             1 
    25 t_2_5                 24.2841             0               
    26 t_1_6                       0             0               
    27 t_2_6                 486.909             0               
    28 t_1_7                 7.70488             0               
    29 t_2_7                       0             0               
    30 s_1_8        *              0             0             1 
    31 t_1_8                 24.2841             0               
    32 s_2_8        *              1             0             1 
    33 t_2_8                 24.2841             0               
    34 u_1_1_2      *              0             0             1 
    35 u_2_1_2      *              1             0             1 
    36 u_1_1_3      *              0             0             1 
    37 u_2_1_3      *              0             0             1 
    38 u_1_1_4      *              0             0             1 
    39 u_2_1_4      *              0             0             1 
    40 u_1_1_5      *              0             0             1 
    41 u_2_1_5      *              1             0             1 
    42 u_1_1_7      *              0             0             1 
    43 u_2_1_7      *              0             0             1 
    44 u_1_2_1      *              1             0             1 
    45 u_2_2_1      *              0             0             1 
    46 u_1_2_3      *              1             0             1 
    47 u_2_2_3      *              0             0             1 
    48 u_1_2_4      *              1             0             1 
    49 u_2_2_4      *              0             0             1 
    50 u_1_2_5      *              1             0             1 
    51 u_2_2_5      *              0             0             1 
    52 u_1_2_6      *              0             0             1 
    53 u_2_2_6      *              1             0             1 
    54 u_1_3_1      *              1             0             1 
    55 u_2_3_1      *              1             0             1 
    56 u_1_3_2      *              0             0             1 
    57 u_2_3_2      *              1             0             1 
    58 u_1_3_5      *              0             0             1 
    59 u_2_3_5      *              1             0             1 
    60 u_1_3_6      *              0             0             1 
    61 u_2_3_6      *              1             0             1 
    62 u_1_4_1      *              1             0             1 
    63 u_2_4_1      *              1             0             1 
    64 u_1_4_2      *              0             0             1 
    65 u_2_4_2      *              1             0             1 
    66 u_1_4_5      *              0             0             1 
    67 u_2_4_5      *              1             0             1 
    68 u_1_4_6      *              0             0             1 
    69 u_2_4_6      *              1             0             1 
    70 u_1_5_1      *              1             0             1 
    71 u_2_5_1      *              0             0             1 
    72 u_1_5_2      *              0             0             1 
    73 u_2_5_2      *              1             0             1 
    74 u_1_5_3      *              1             0             1 
    75 u_2_5_3      *              0             0             1 
    76 u_1_5_4      *              1             0             1 
    77 u_2_5_4      *              0             0             1 
    78 u_1_6_2      *              1             0             1 
    79 u_2_6_2      *              0             0             1 
    80 u_1_6_3      *              1             0             1 
    81 u_2_6_3      *              0             0             1 
    82 u_1_6_4      *              1             0             1 
    83 u_2_6_4      *              0             0             1 
    84 u_1_6_7      *              1             0             1 
    85 u_2_6_7      *              0             0             1 
    86 u_1_7_1      *              1             0             1 
    87 u_2_7_1      *              1             0             1 
    88 u_1_7_6      *              0             0             1 
    89 u_2_7_6      *              1             0             1 

Integer feasibility conditions:

KKT.PE: max.abs.err = 1.14e-13 on row 159
        max.rel.err = 1.08e-16 on row 160
        High quality

KKT.PB: max.abs.err = 5.68e-14 on row 62
        max.rel.err = 6.53e-15 on row 225
        High quality

End of output
